(set-option :print-success false)
(set-logic QF_UF)
(declare-sort x48 0)
(declare-sort x137 0)
(declare-fun x93 () x137)
(declare-fun x113 () x137)
(declare-fun x86 () x137)
(declare-fun x153 () x137)
(declare-fun x108 () x137)
(declare-fun x29 (x137 x137) x137)
(declare-fun x16 (x137 x137) x137)
(assert (not (and (= (x29 x93 x93) x153) (and (= (x29 x93 x86) x108) (and (= x113 (x29 x93 x113)) (and (= (x29 x93 x108) x86) (and (and (= (x29 x86 x93) x108) (and (= (x29 x86 x86) x113) (and (= (x29 x86 x113) x93) (and (= (x29 x86 x108) x153) (and (= x86 (x29 x86 x153)) (and (= x86 (x29 x113 x93)) (and (= (x29 x113 x86) x153) (and (and (= (x29 x113 x108) x93) (and (= x113 (x29 x113 x153)) (and (and (= x93 (x29 x108 x86)) (and (= x86 (x29 x108 x113)) (and (and (and (and (and (= (x29 x153 x113) x153) (and (= (x29 x153 x108) x113) (= (x29 x153 x153) x108))) (= x86 (x29 x153 x86))) (= x93 (x29 x153 x93))) (= (x29 x108 x153) x153)) (= x108 (x29 x108 x108))))) (= (x29 x108 x93) x113)))) (= x108 (x29 x113 x113)))))))))) (= (x29 x93 x153) x93))))))))
(assert (let ((x120 (x29 x86 x86)) (x127 (x29 x93 x93)) (x150 (x29 x113 x113)) (x121 (x29 x108 x108)) (x11 (x29 x153 x153))) (or (and (not (= x93 x127)) (and (not (= x120 x93)) (and (and (not (= x11 x93)) (not (= x93 x121))) (not (= x93 x150))))) (or (or (and (not (= x113 x127)) (and (and (and (not (= x113 x11)) (not (= x121 x113))) (not (= x113 x150))) (not (= x113 x120)))) (or (and (not (= x127 x108)) (and (and (not (= x150 x108)) (and (not (= x121 x108)) (not (= x108 x11)))) (not (= x120 x108)))) (and (and (and (not (= x153 x150)) (and (not (= x153 x11)) (not (= x121 x153)))) (not (= x120 x153))) (not (= x153 x127))))) (and (not (= x86 x127)) (and (not (= x120 x86)) (and (not (= x86 x150)) (and (not (= x11 x86)) (not (= x86 x121))))))))))
(assert (not (and (and (and (= (x29 x93 x113) x86) (and (and (= (x29 x93 x153) x93) (and (and (= x86 (x29 x86 x86)) (and (and (= x113 (x29 x86 x108)) (and (and (and (and (and (= (x29 x113 x108) x93) (and (= (x29 x113 x153) x113) (and (and (= (x29 x108 x86) x93) (and (= (x29 x108 x113) x153) (and (= (x29 x108 x108) x86) (and (and (and (and (and (= (x29 x153 x108) x153) (= x86 (x29 x153 x153))) (= x113 (x29 x153 x113))) (= x108 (x29 x153 x86))) (= x93 (x29 x153 x93))) (= (x29 x108 x153) x108))))) (= (x29 x108 x93) x113)))) (= (x29 x113 x113) x108)) (= x153 (x29 x113 x86))) (= x86 (x29 x113 x93))) (= x153 (x29 x86 x153)))) (= (x29 x86 x113) x93))) (= (x29 x86 x93) x108))) (= x108 (x29 x93 x108)))) (= x113 (x29 x93 x86))) (= (x29 x93 x93) x153))))
(assert (and (or (= (x29 (x29 x93 x93) x93) x93) (or (= x86 (x29 (x29 x93 x86) x93)) (or (= x113 (x29 (x29 x93 x113) x93)) (or (= (x29 (x29 x93 x153) x93) x153) (= (x29 (x29 x93 x108) x93) x108))))) (and (and (or (or (or (or (= x108 (x29 (x29 x113 x108) x113)) (= x153 (x29 (x29 x113 x153) x113))) (= x113 (x29 (x29 x113 x113) x113))) (= (x29 (x29 x113 x86) x113) x86)) (= (x29 (x29 x113 x93) x113) x93)) (and (or (= x93 (x29 (x29 x153 x93) x153)) (or (= (x29 (x29 x153 x86) x153) x86) (or (= (x29 (x29 x153 x113) x153) x113) (or (= (x29 (x29 x153 x153) x153) x153) (= (x29 (x29 x153 x108) x153) x108))))) (or (or (= x86 (x29 (x29 x108 x86) x108)) (or (= (x29 (x29 x108 x113) x108) x113) (or (= x153 (x29 (x29 x108 x153) x108)) (= x108 (x29 (x29 x108 x108) x108))))) (= x93 (x29 (x29 x108 x93) x108))))) (or (or (= x86 (x29 (x29 x86 x86) x86)) (or (= (x29 (x29 x86 x113) x86) x113) (or (= (x29 (x29 x86 x108) x86) x108) (= x153 (x29 (x29 x86 x153) x86))))) (= x93 (x29 (x29 x86 x93) x86))))))
(assert (or (or (= x86 (x29 x86 x86)) (or (or (= x153 (x29 x153 x153)) (= (x29 x108 x108) x108)) (= x113 (x29 x113 x113)))) (= x93 (x29 x93 x93))))
(assert (let ((x42 (x29 x108 x113)) (x132 (x29 x86 x108)) (x25 (x29 x113 x108)) (x73 (x29 x108 x93)) (x49 (x29 x153 x86)) (x17 (x29 x93 x86)) (x27 (not (= x93 (x29 x93 x93)))) (x150 (x29 x108 x153)) (x89 (x29 x113 x86)) (x159 (x29 x86 x113)) (x96 (not (= x113 (x29 x113 x113)))) (x145 (x29 x86 x153)) (x79 (not (= x86 (x29 x86 x86)))) (x13 (x29 x93 x108)) (x63 (x29 x86 x93)) (x19 (x29 x153 x93)) (x127 (x29 x153 x113)) (x121 (x29 x153 x108)) (x151 (x29 x93 x113)) (x94 (x29 x113 x153)) (x120 (not (= (x29 x108 x108) x108))) (x70 (x29 x113 x93)) (x104 (x29 x108 x86)) (x158 (x29 x93 x153)) (x11 (not (= (x29 x153 x153) x153)))) (or (and (and (and (not (= x86 x17)) (and (not (= x113 x151)) (and (not (= x13 x108)) (not (= x153 x158))))) x27) (and x27 (and (and (and (not (= x19 x153)) (not (= x108 x73))) (not (= x70 x113))) (not (= x63 x86))))) (or (and (and (not (= x63 x93)) (and x79 (and (not (= x113 x159)) (and (not (= x145 x153)) (not (= x108 x132)))))) (and (and x79 (and (and (not (= x108 x104)) (not (= x49 x153))) (not (= x89 x113)))) (not (= x93 x17)))) (or (and (and (and (and x96 (and (not (= x94 x153)) (not (= x25 x108)))) (not (= x86 x89))) (not (= x93 x70))) (and (and (not (= x86 x159)) (and x96 (and (not (= x153 x127)) (not (= x108 x42))))) (not (= x151 x93)))) (or (and (and (not (= x93 x158)) (and (not (= x145 x86)) (and (and (not (= x150 x108)) x11) (not (= x94 x113))))) (and (and (not (= x86 x49)) (and (and (not (= x108 x121)) x11) (not (= x127 x113)))) (not (= x93 x19)))) (and (and (not (= x93 x73)) (and (and (not (= x42 x113)) (and x120 (not (= x150 x153)))) (not (= x104 x86)))) (and (not (= x93 x13)) (and (not (= x132 x86)) (and (not (= x113 x25)) (and x120 (not (= x121 x153)))))))))))))
(assert (let ((x155 (x29 x86 x86)) (x81 (x29 x93 x93)) (x61 (x29 x108 x93)) (x143 (x29 x153 x93)) (x149 (x29 x153 x113)) (x92 (x29 x153 x108)) (x119 (x29 x93 x153)) (x154 (x29 x113 x153)) (x34 (x29 x93 x86)) (x140 (x29 x113 x108)) (x60 (x29 x153 x153)) (x53 (x29 x86 x153)) (x67 (x29 x93 x108)) (x105 (x29 x113 x86)) (x114 (x29 x108 x113)) (x5 (x29 x93 x113)) (x26 (x29 x108 x108)) (x22 (x29 x108 x86)) (x2 (x29 x86 x108)) (x30 (x29 x113 x93)) (x117 (x29 x86 x93)) (x74 (x29 x113 x113)) (x103 (x29 x86 x113)) (x148 (x29 x108 x153)) (x82 (x29 x153 x86))) (let ((x64 (= x81 x108)) (x66 (= x108 x74)) (x55 (= x149 x113)) (x89 (= x153 x2)) (x10 (= x93 x67)) (x97 (= x74 x93)) (x62 (= x74 x86)) (x71 (= x148 x86)) (x124 (= x86 x5)) (x6 (= x93 x61)) (x11 (= x153 x60)) (x152 (= x155 x113)) (x157 (= x93 x103)) (x68 (= x117 x113)) (x128 (= x103 x113)) (x94 (= x153 x140)) (x133 (= x22 x113)) (x23 (= x119 x108)) (x85 (= x140 x93)) (x116 (= x103 x108)) (x112 (= x86 x155)) (x141 (= x34 x86)) (x84 (= x92 x93)) (x33 (= x113 x74)) (x57 (= x93 x143)) (x9 (= x113 x82)) (x12 (= x108 x61)) (x158 (= x153 x5)) (x37 (= x148 x113)) (x19 (= x119 x153)) (x135 (= x108 x5)) (x45 (= x113 x30)) (x38 (= x113 x60)) (x139 (= x60 x86)) (x50 (= x108 x155)) (x123 (= x108 x92)) (x102 (= x86 x119)) (x20 (= x108 x114)) (x70 (= x67 x153)) (x130 (= x86 x140)) (x51 (= x26 x93)) (x47 (= x108 x148)) (x156 (= x119 x113)) (x1 (= x92 x113)) (x59 (= x93 x117)) (x111 (= x92 x86)) (x44 (= x2 x108)) (x63 (= x61 x153)) (x65 (= x86 x67)) (x95 (= x86 x61)) (x127 (= x154 x153)) (x83 (= x113 x81)) (x15 (= x86 x149)) (x46 (= x113 x61)) (x134 (= x140 x113)) (x107 (= x81 x93)) (x7 (= x60 x93)) (x78 (= x5 x93)) (x24 (= x53 x113)) (x100 (= x113 x114)) (x32 (= x154 x113)) (x90 (= x34 x113)) (x31 (= x105 x93)) (x126 (= x2 x93)) (x87 (= x30 x93)) (x131 (= x108 x67)) (x80 (= x82 x93)) (x17 (= x117 x153)) (x56 (= x22 x93)) (x104 (= x82 x153)) (x147 (= x108 x22)) (x99 (= x108 x105)) (x21 (= x53 x93)) (x69 (= x86 x105)) (x18 (= x93 x114)) (x125 (= x67 x113)) (x101 (= x149 x108)) (x72 (= x53 x108)) (x27 (= x153 x81)) (x115 (= x53 x86)) (x132 (= x153 x103)) (x109 (= x154 x93)) (x52 (= x108 x143)) (x73 (= x143 x153)) (x36 (= x26 x108)) (x14 (= x113 x2)) (x35 (= x26 x86)) (x122 (= x86 x81)) (x98 (= x86 x143)) (x77 (= x113 x143)) (x79 (= x153 x155)) (x110 (= x86 x103)) (x25 (= x114 x153)) (x49 (= x53 x153)) (x118 (= x86 x114)) (x91 (= x86 x154)) (x146 (= x60 x108)) (x120 (= x26 x153)) (x39 (= x108 x117)) (x40 (= x86 x117)) (x159 (= x153 x105)) (x138 (= x108 x140)) (x106 (= x2 x86)) (x75 (= x113 x5)) (x41 (= x30 x86)) (x3 (= x113 x105)) (x129 (= x93 x34)) (x142 (= x86 x22)) (x151 (= x34 x153)) (x88 (= x93 x155)) (x13 (= x153 x30)) (x4 (= x108 x34)) (x42 (= x149 x153)) (x121 (= x148 x153)) (x96 (= x74 x153)) (x145 (= x153 x22)) (x54 (= x93 x149)) (x144 (= x86 x82)) (x28 (= x119 x93)) (x136 (= x26 x113)) (x8 (= x93 x148)) (x58 (= x108 x82)) (x150 (= x153 x92)) (x76 (= x154 x108)) (x43 (= x30 x108))) (or (or (or (or (and (and (and (or (not x4) x39) (and (or (not x135) x43) (and (or (not x23) x52) (or (not x131) x12)))) (or x64 (not x64))) (and (and (and (and (and (or x66 (not x66)) (and (or x20 (not x138)) (or (not x76) x101))) (or x116 (not x99))) (or (not x43) x135)) (and (and (and (or (not x58) x72) (and (and (or (not x123) x47) (or x146 (not x146))) (or x76 (not x101)))) (or x23 (not x52))) (and (and (or (not x147) x44) (and (and (or x36 (not x36)) (or x123 (not x47))) (or (not x20) x138))) (or (not x12) x131)))) (and (and (or x50 (not x50)) (and (or x99 (not x116)) (and (or x147 (not x44)) (or x58 (not x72))))) (or x4 (not x39))))) (and (and (and (and (and (and (or x49 (not x104)) (and (and (or x121 (not x150)) (or x11 (not x11))) (or (not x42) x127))) (or x19 (not x73))) (and (and (or (not x145) x89) (and (and (or (not x120) x120) (or x150 (not x121))) (or x94 (not x25)))) (or x70 (not x63)))) (and (and (and (and (or (not x127) x42) (or x25 (not x94))) (or x96 (not x96))) (or x132 (not x159))) (or (not x13) x158))) (and (or x151 (not x17)) (and (or x79 (not x79)) (and (and (or (not x89) x145) (or x104 (not x49))) (or (not x132) x159))))) (and (or (not x27) x27) (and (or (not x151) x17) (and (and (or x63 (not x70)) (or (not x19) x73)) (or (not x158) x13)))))) (and (and (and (and (and (and (and (or (not x32) x55) (or x100 (not x134))) (or (not x33) x33)) (or (not x3) x128)) (or x75 (not x45))) (and (and (and (or (not x9) x24) (and (or (not x55) x32) (and (or (not x38) x38) (or x37 (not x1))))) (or (not x77) x156)) (and (and (or (not x133) x14) (and (or x134 (not x100)) (and (or (not x136) x136) (or (not x37) x1)))) (or (not x46) x125)))) (and (or (not x68) x90) (and (and (or x3 (not x128)) (and (or (not x24) x9) (or x133 (not x14)))) (or (not x152) x152)))) (and (or x83 (not x83)) (and (or (not x90) x68) (and (and (or x46 (not x125)) (or x77 (not x156))) (or (not x75) x45)))))) (and (and (or x122 (not x122)) (and (or (not x141) x40) (and (and (or x98 (not x102)) (or x95 (not x65))) (or (not x124) x41)))) (and (and (and (and (and (and (and (or x35 (not x35)) (or x111 (not x71))) (or (not x118) x130)) (or (not x142) x106)) (or x65 (not x95))) (and (or x102 (not x98)) (and (and (and (or (not x111) x71) (or (not x139) x139)) (or (not x15) x91)) (or x115 (not x144))))) (and (and (or (not x69) x110) (and (or (not x62) x62) (and (or x15 (not x91)) (or (not x130) x118)))) (or x124 (not x41)))) (and (or x141 (not x40)) (and (or x112 (not x112)) (and (or (not x110) x69) (and (or (not x115) x144) (or x142 (not x106))))))))) (and (and (and (or x129 (not x59)) (and (or x88 (not x88)) (and (or (not x157) x31) (and (or x56 (not x126)) (or x80 (not x21)))))) (and (and (and (and (and (or x18 (not x85)) (or x54 (not x109))) (or (not x97) x97)) (or x157 (not x31))) (or x78 (not x87))) (and (and (and (or (not x80) x21) (and (and (or x8 (not x84)) (or x7 (not x7))) (or x109 (not x54)))) (or x28 (not x57))) (and (or (not x6) x10) (and (or x126 (not x56)) (and (and (or (not x51) x51) (or (not x8) x84)) (or (not x18) x85))))))) (and (and (and (or (not x78) x87) (and (or (not x28) x57) (or x6 (not x10)))) (or (not x129) x59)) (or (not x107) x107)))))))
(assert (let ((x11 (x29 x153 x153)) (x132 (x29 x86 x113)) (x96 (x29 x113 x113)) (x27 (x29 x93 x93)) (x89 (x29 x86 x108)) (x145 (x29 x108 x86)) (x120 (x29 x108 x108)) (x121 (x29 x108 x153)) (x159 (x29 x113 x86)) (x127 (x29 x113 x153)) (x79 (x29 x86 x86)) (x73 (x29 x153 x93)) (x94 (x29 x113 x108)) (x17 (x29 x86 x93)) (x49 (x29 x86 x153)) (x70 (x29 x93 x108)) (x151 (x29 x93 x86)) (x104 (x29 x153 x86)) (x150 (x29 x153 x108)) (x25 (x29 x108 x113)) (x63 (x29 x108 x93)) (x19 (x29 x93 x153)) (x13 (x29 x113 x93)) (x158 (x29 x93 x113)) (x42 (x29 x153 x113))) (and (and (and (or (or (or (not (= x96 x96)) (or (not (= x42 x127)) (not (= x94 x25)))) (not (= x159 x132))) (not (= x158 x13))) (and (or (not (= x19 x73)) (or (not (= x104 x49)) (or (or (not (= x11 x11)) (not (= x121 x150))) (not (= x42 x127))))) (or (or (not (= x145 x89)) (or (or (not (= x120 x120)) (not (= x121 x150))) (not (= x25 x94)))) (not (= x70 x63))))) (or (or (or (or (not (= x104 x49)) (not (= x89 x145))) (not (= x132 x159))) (not (= x79 x79))) (not (= x151 x17)))) (or (not (= x27 x27)) (or (or (not (= x158 x13)) (or (not (= x63 x70)) (not (= x19 x73)))) (not (= x151 x17)))))))
(assert (let ((x119 (x29 x93 x153)) (x148 (x29 x108 x153)) (x5 (x29 x93 x113)) (x30 (x29 x113 x93)) (x74 (x29 x113 x113)) (x82 (x29 x153 x86)) (x140 (x29 x113 x108)) (x60 (x29 x153 x153)) (x149 (x29 x153 x113)) (x22 (x29 x108 x86)) (x155 (x29 x86 x86)) (x61 (x29 x108 x93)) (x154 (x29 x113 x153)) (x114 (x29 x108 x113)) (x143 (x29 x153 x93)) (x92 (x29 x153 x108)) (x53 (x29 x86 x153)) (x34 (x29 x93 x86)) (x105 (x29 x113 x86)) (x2 (x29 x86 x108)) (x26 (x29 x108 x108)) (x67 (x29 x93 x108)) (x117 (x29 x86 x93)) (x103 (x29 x86 x113)) (x81 (x29 x93 x93))) (let ((x136 (= x26 x113)) (x7 (= x60 x93)) (x70 (= x67 x153)) (x134 (= x113 x140)) (x157 (= x103 x93)) (x126 (= x2 x93)) (x84 (= x92 x93)) (x28 (= x93 x119)) (x77 (= x113 x143)) (x55 (= x149 x113)) (x1 (= x92 x113)) (x64 (= x108 x81)) (x66 (= x74 x108)) (x36 (= x26 x108)) (x152 (= x155 x113)) (x62 (= x86 x74)) (x94 (= x140 x153)) (x18 (= x114 x93)) (x115 (= x53 x86)) (x54 (= x93 x149)) (x6 (= x61 x93)) (x44 (= x108 x2)) (x41 (= x86 x30)) (x14 (= x2 x113)) (x107 (= x93 x81)) (x69 (= x86 x105)) (x88 (= x155 x93)) (x96 (= x153 x74)) (x125 (= x67 x113)) (x10 (= x67 x93)) (x141 (= x34 x86)) (x156 (= x113 x119)) (x49 (= x53 x153)) (x37 (= x148 x113)) (x23 (= x108 x119)) (x99 (= x105 x108)) (x95 (= x86 x61)) (x151 (= x34 x153)) (x102 (= x86 x119)) (x75 (= x5 x113)) (x8 (= x93 x148)) (x97 (= x93 x74)) (x128 (= x113 x103)) (x83 (= x113 x81)) (x21 (= x53 x93)) (x121 (= x148 x153)) (x58 (= x108 x82)) (x59 (= x117 x93)) (x57 (= x143 x93)) (x147 (= x22 x108)) (x33 (= x113 x74)) (x100 (= x114 x113)) (x76 (= x108 x154)) (x144 (= x82 x86)) (x43 (= x108 x30)) (x73 (= x143 x153)) (x116 (= x108 x103)) (x68 (= x113 x117)) (x15 (= x86 x149)) (x38 (= x113 x60)) (x46 (= x113 x61)) (x138 (= x108 x140)) (x142 (= x22 x86)) (x127 (= x153 x154)) (x42 (= x153 x149)) (x89 (= x2 x153)) (x118 (= x86 x114)) (x129 (= x34 x93)) (x19 (= x153 x119)) (x112 (= x86 x155)) (x39 (= x117 x108)) (x78 (= x93 x5)) (x80 (= x82 x93)) (x145 (= x22 x153)) (x52 (= x108 x143)) (x133 (= x22 x113)) (x101 (= x149 x108)) (x124 (= x86 x5)) (x3 (= x105 x113)) (x135 (= x5 x108)) (x150 (= x92 x153)) (x20 (= x114 x108)) (x13 (= x153 x30)) (x63 (= x61 x153)) (x12 (= x108 x61)) (x120 (= x26 x153)) (x45 (= x30 x113)) (x27 (= x153 x81)) (x11 (= x60 x153)) (x109 (= x154 x93)) (x111 (= x86 x92)) (x35 (= x26 x86)) (x98 (= x86 x143)) (x40 (= x117 x86)) (x71 (= x86 x148)) (x25 (= x153 x114)) (x47 (= x108 x148)) (x4 (= x34 x108)) (x56 (= x93 x22)) (x32 (= x154 x113)) (x146 (= x60 x108)) (x51 (= x93 x26)) (x17 (= x153 x117)) (x87 (= x93 x30)) (x159 (= x153 x105)) (x50 (= x155 x108)) (x158 (= x153 x5)) (x110 (= x86 x103)) (x123 (= x108 x92)) (x24 (= x53 x113)) (x31 (= x93 x105)) (x122 (= x86 x81)) (x139 (= x60 x86)) (x130 (= x86 x140)) (x85 (= x140 x93)) (x104 (= x82 x153)) (x79 (= x153 x155)) (x9 (= x113 x82)) (x132 (= x103 x153)) (x131 (= x108 x67)) (x91 (= x154 x86)) (x72 (= x108 x53)) (x90 (= x113 x34)) (x106 (= x2 x86)) (x65 (= x67 x86))) (and (and (or (or (and x122 x122) (or (or (or (and x65 x95) (and x102 x98)) (and x124 x41)) (and x141 x40))) (or (or (or (or (or (or (and x118 x130) (or (and x111 x71) (and x35 x35))) (and x106 x142)) (and x95 x65)) (or (or (or (or (and x139 x139) (and x71 x111)) (and x15 x91)) (and x115 x144)) (and x102 x98))) (or (or (or (and x62 x62) (or (and x15 x91) (and x118 x130))) (and x69 x110)) (and x124 x41))) (or (and x141 x40) (or (and x112 x112) (or (or (and x142 x106) (and x115 x144)) (and x110 x69)))))) (and (and (or (or (or (or (or (or (and x72 x58) (and x44 x147)) (and x116 x99)) (and x50 x50)) (and x4 x39)) (or (or (or (or (or (and x20 x138) (or (and x36 x36) (and x123 x47))) (and x44 x147)) (and x12 x131)) (or (or (or (or (and x47 x123) (and x146 x146)) (and x76 x101)) (and x58 x72)) (and x23 x52))) (or (or (and x116 x99) (or (or (and x76 x101) (and x20 x138)) (and x66 x66))) (and x43 x135)))) (or (and x64 x64) (or (and x4 x39) (or (or (and x131 x12) (and x23 x52)) (and x43 x135))))) (or (or (and x27 x27) (or (and x151 x17) (or (or (and x73 x19) (and x63 x70)) (and x13 x158)))) (or (or (and x151 x17) (or (and x79 x79) (or (and x132 x159) (or (and x89 x145) (and x104 x49))))) (or (or (or (and x73 x19) (or (or (and x42 x127) (or (and x121 x150) (and x11 x11))) (and x49 x104))) (or (and x63 x70) (or (and x145 x89) (or (or (and x121 x150) (and x120 x120)) (and x94 x25))))) (or (or (or (and x96 x96) (or (and x42 x127) (and x94 x25))) (and x159 x132)) (and x13 x158)))))) (or (or (or (and x90 x68) (or (and x152 x152) (or (or (and x14 x133) (and x9 x24)) (and x128 x3)))) (or (or (or (or (or (or (and x1 x37) (and x38 x38)) (and x55 x32)) (and x9 x24)) (and x156 x77)) (or (and x46 x125) (or (and x133 x14) (or (and x100 x134) (or (and x136 x136) (and x1 x37)))))) (or (and x45 x75) (or (or (or (and x100 x134) (and x32 x55)) (and x33 x33)) (and x3 x128))))) (or (and x83 x83) (or (or (or (and x77 x156) (and x125 x46)) (and x45 x75)) (and x90 x68)))))) (or (or (or (or (or (or (or (or (and x8 x84) (and x51 x51)) (and x85 x18)) (and x56 x126)) (and x10 x6)) (or (and x57 x28) (or (and x21 x80) (or (or (and x8 x84) (and x7 x7)) (and x54 x109))))) (or (and x78 x87) (or (and x31 x157) (or (or (and x54 x109) (and x85 x18)) (and x97 x97))))) (or (or (or (and x31 x157) (or (and x80 x21) (and x126 x56))) (and x88 x88)) (and x129 x59))) (or (and x107 x107) (or (and x129 x59) (or (or (and x28 x57) (and x6 x10)) (and x87 x78)))))))))
(assert (let ((x73 (x29 x113 x86)) (x104 (x29 x153 x113)) (x150 (x29 x113 x153)) (x11 (x29 x153 x153)) (x17 (x29 x86 x93)) (x89 (x29 x108 x113)) (x151 (x29 x113 x93)) (x127 (x29 x93 x153)) (x63 (x29 x93 x86)) (x25 (x29 x113 x108)) (x96 (x29 x86 x108)) (x79 (x29 x153 x86)) (x159 (x29 x93 x113)) (x19 (x29 x108 x86)) (x145 (x29 x113 x113)) (x13 (x29 x108 x93)) (x70 (x29 x86 x86)) (x158 (x29 x153 x93)) (x27 (x29 x93 x93)) (x121 (x29 x108 x153)) (x132 (x29 x86 x113)) (x94 (x29 x108 x108)) (x42 (x29 x153 x108)) (x49 (x29 x93 x108)) (x120 (x29 x86 x153))) (or (and (not (= (x29 x27 x27) x93)) (and (and (not (= x113 (x29 x151 x151))) (and (not (= x153 (x29 x158 x158))) (not (= (x29 x13 x13) x108)))) (not (= x86 (x29 x17 x17))))) (or (or (or (and (and (and (not (= (x29 x150 x150) x113)) (and (not (= x108 (x29 x121 x121))) (not (= (x29 x11 x11) x153)))) (not (= (x29 x120 x120) x86))) (not (= x93 (x29 x127 x127)))) (and (not (= x93 (x29 x49 x49))) (and (not (= (x29 x96 x96) x86)) (and (and (not (= (x29 x42 x42) x153)) (not (= (x29 x94 x94) x108))) (not (= x113 (x29 x25 x25))))))) (and (not (= (x29 x159 x159) x93)) (and (and (not (= (x29 x145 x145) x113)) (and (not (= x108 (x29 x89 x89))) (not (= x153 (x29 x104 x104))))) (not (= (x29 x132 x132) x86))))) (and (not (= (x29 x63 x63) x93)) (and (and (not (= (x29 x73 x73) x113)) (and (not (= (x29 x19 x19) x108)) (not (= x153 (x29 x79 x79))))) (not (= (x29 x70 x70) x86))))))))
(assert (let ((x89 (x29 x113 x108)) (x73 (x29 x86 x113)) (x25 (x29 x108 x113)) (x19 (x29 x86 x108)) (x63 (x29 x86 x93)) (x127 (x29 x153 x93)) (x49 (x29 x108 x93)) (x145 (x29 x113 x113)) (x158 (x29 x93 x153)) (x104 (x29 x113 x153)) (x120 (x29 x153 x86)) (x132 (x29 x113 x86)) (x70 (x29 x86 x86)) (x13 (x29 x93 x108)) (x79 (x29 x86 x153)) (x17 (x29 x93 x86)) (x159 (x29 x113 x93)) (x11 (x29 x153 x153)) (x42 (x29 x108 x153)) (x96 (x29 x108 x86)) (x151 (x29 x93 x113)) (x150 (x29 x153 x113)) (x94 (x29 x108 x108)) (x121 (x29 x153 x108)) (x27 (x29 x93 x93))) (and (and (and (and (and (and (and (and (or (or (or (= x11 x113) (or (= x11 x108) (= x11 x153))) (= x86 x11)) (= x11 x93)) (or (= x121 x93) (or (= x86 x121) (or (= x121 x113) (or (= x121 x153) (= x108 x121)))))) (or (or (or (= x150 x113) (or (= x150 x108) (= x153 x150))) (= x86 x150)) (= x93 x150))) (or (or (or (= x113 x120) (or (= x120 x153) (= x120 x108))) (= x120 x86)) (= x120 x93))) (or (= x127 x93) (or (or (= x113 x127) (or (= x108 x127) (= x153 x127))) (= x127 x86)))) (and (or (= x49 x93) (or (= x86 x49) (or (or (= x49 x108) (= x49 x153)) (= x113 x49)))) (and (and (or (or (= x86 x25) (or (= x113 x25) (or (= x25 x108) (= x153 x25)))) (= x93 x25)) (and (or (= x93 x94) (or (= x86 x94) (or (= x113 x94) (or (= x94 x153) (= x94 x108))))) (or (= x42 x93) (or (= x42 x86) (or (= x42 x113) (or (= x42 x153) (= x108 x42))))))) (or (or (= x86 x96) (or (= x113 x96) (or (= x108 x96) (= x153 x96)))) (= x96 x93))))) (and (or (or (or (= x113 x159) (or (= x153 x159) (= x159 x108))) (= x159 x86)) (= x93 x159)) (and (or (= x132 x93) (or (= x86 x132) (or (= x132 x113) (or (= x108 x132) (= x153 x132))))) (and (or (or (= x86 x145) (or (or (= x145 x108) (= x153 x145)) (= x145 x113))) (= x145 x93)) (and (or (or (or (or (= x89 x108) (= x89 x153)) (= x113 x89)) (= x89 x86)) (= x93 x89)) (or (= x93 x104) (or (or (= x104 x113) (or (= x108 x104) (= x104 x153))) (= x86 x104)))))))) (and (and (and (and (or (or (= x86 x19) (or (= x113 x19) (or (= x19 x153) (= x108 x19)))) (= x19 x93)) (or (or (= x86 x79) (or (= x79 x113) (or (= x79 x153) (= x79 x108)))) (= x93 x79))) (or (= x73 x93) (or (= x73 x86) (or (or (= x73 x108) (= x153 x73)) (= x113 x73))))) (or (= x70 x93) (or (or (or (= x70 x108) (= x70 x153)) (= x113 x70)) (= x70 x86)))) (or (= x63 x93) (or (or (= x113 x63) (or (= x63 x153) (= x108 x63))) (= x86 x63))))) (and (and (and (or (or (or (= x113 x151) (or (= x108 x151) (= x153 x151))) (= x86 x151)) (= x93 x151)) (and (or (or (= x86 x158) (or (= x158 x113) (or (= x158 x153) (= x158 x108)))) (= x93 x158)) (or (or (= x86 x13) (or (or (= x13 x153) (= x108 x13)) (= x113 x13))) (= x93 x13)))) (or (= x17 x93) (or (= x86 x17) (or (= x17 x113) (or (= x108 x17) (= x153 x17)))))) (or (= x27 x93) (or (or (or (= x108 x27) (= x27 x153)) (= x27 x113)) (= x86 x27)))))))
(assert (and (and (and (or (= (x29 x93 (x29 x113 x93)) x113) (or (= x113 (x29 x86 (x29 x113 x86))) (or (or (= (x29 x153 (x29 x113 x153)) x113) (= (x29 x108 (x29 x113 x108)) x113)) (= x113 (x29 x113 (x29 x113 x113)))))) (and (or (or (or (= (x29 x113 (x29 x108 x113)) x108) (or (= (x29 x153 (x29 x108 x153)) x108) (= (x29 x108 (x29 x108 x108)) x108))) (= x108 (x29 x86 (x29 x108 x86)))) (= x108 (x29 x93 (x29 x108 x93)))) (or (= x153 (x29 x93 (x29 x153 x93))) (or (or (= (x29 x113 (x29 x153 x113)) x153) (or (= x153 (x29 x153 (x29 x153 x153))) (= x153 (x29 x108 (x29 x153 x108))))) (= (x29 x86 (x29 x153 x86)) x153))))) (or (or (= x86 (x29 x86 (x29 x86 x86))) (or (= x86 (x29 x113 (x29 x86 x113))) (or (= (x29 x108 (x29 x86 x108)) x86) (= x86 (x29 x153 (x29 x86 x153)))))) (= (x29 x93 (x29 x86 x93)) x86))) (or (= x93 (x29 x93 (x29 x93 x93))) (or (= (x29 x86 (x29 x93 x86)) x93) (or (or (= (x29 x108 (x29 x93 x108)) x93) (= x93 (x29 x153 (x29 x93 x153)))) (= (x29 x113 (x29 x93 x113)) x93))))))
(assert (or (or (or (or (and (and (and (not (= (x29 x108 (x29 x108 x113)) x113)) (and (not (= (x29 x108 (x29 x108 x153)) x153)) (not (= (x29 x108 (x29 x108 x108)) x108)))) (not (= (x29 x108 (x29 x108 x86)) x86))) (not (= x93 (x29 x108 (x29 x108 x93))))) (and (not (= (x29 x153 (x29 x153 x93)) x93)) (and (and (not (= (x29 x153 (x29 x153 x113)) x113)) (and (not (= (x29 x153 (x29 x153 x153)) x153)) (not (= (x29 x153 (x29 x153 x108)) x108)))) (not (= (x29 x153 (x29 x153 x86)) x86))))) (and (and (and (and (not (= (x29 x113 (x29 x113 x108)) x108)) (not (= x153 (x29 x113 (x29 x113 x153))))) (not (= (x29 x113 (x29 x113 x113)) x113))) (not (= (x29 x113 (x29 x113 x86)) x86))) (not (= x93 (x29 x113 (x29 x113 x93)))))) (and (not (= (x29 x86 (x29 x86 x93)) x93)) (and (not (= (x29 x86 (x29 x86 x86)) x86)) (and (and (not (= x108 (x29 x86 (x29 x86 x108)))) (not (= (x29 x86 (x29 x86 x153)) x153))) (not (= (x29 x86 (x29 x86 x113)) x113)))))) (and (not (= (x29 x93 (x29 x93 x93)) x93)) (and (and (and (not (= x108 (x29 x93 (x29 x93 x108)))) (not (= x153 (x29 x93 (x29 x93 x153))))) (not (= x113 (x29 x93 (x29 x93 x113))))) (not (= (x29 x93 (x29 x93 x86)) x86))))))
(assert (and (and (and (not (= x86 x113)) (and (and (and (not (= x113 x108)) (and (not (= x93 x153)) (and (not (= x86 x153)) (and (not (= x153 x113)) (not (= x108 x153)))))) (not (= x108 x86))) (not (= x93 x108)))) (not (= x113 x93))) (not (= x86 x93))))
(assert (and (and (and (= (x29 x113 x113) x108) (= x153 (x29 x113 x86))) (= x86 (x29 x113 x93))) (= (x29 x113 x108) x93)))
(assert (let ((x13 (x29 x108 x93)) (x146 (x29 x93 x108)) (x100 (x29 x93 x86)) (x98 (x29 x93 x93)) (x127 (x29 x153 x86)) (x42 (x29 x153 x93)) (x61 (x29 x113 x113)) (x96 (x29 x113 x153)) (x150 (x29 x153 x108)) (x63 (x29 x108 x113)) (x121 (x29 x153 x153)) (x158 (x29 x108 x86)) (x120 (x29 x153 x113)) (x49 (x29 x86 x153)) (x37 (x29 x86 x86)) (x1 (x29 x86 x93)) (x74 (x29 x86 x113)) (x66 (x29 x93 x113)) (x76 (x29 x113 x93)) (x25 (x29 x108 x153)) (x104 (x29 x93 x153)) (x60 (x29 x86 x108)) (x70 (x29 x108 x108)) (x67 (x29 x113 x86)) (x27 (x29 x113 x108))) (let ((x53 (= x86 x70)) (x111 (= x93 x67)) (x99 (= x86 x61)) (x119 (= x93 x150)) (x79 (= x150 x153)) (x28 (= x104 x93)) (x51 (= x13 x113)) (x114 (= x153 x63)) (x105 (= x96 x113)) (x131 (= x60 x153)) (x56 (= x13 x86)) (x141 (= x108 x98)) (x106 (= x153 x1)) (x109 (= x76 x113)) (x81 (= x49 x108)) (x116 (= x86 x63)) (x75 (= x86 x67)) (x21 (= x86 x66)) (x35 (= x93 x37)) (x54 (= x113 x1)) (x134 (= x108 x37)) (x20 (= x108 x61)) (x71 (= x93 x158)) (x157 (= x86 x76)) (x138 (= x63 x108)) (x55 (= x67 x108)) (x102 (= x108 x100)) (x95 (= x108 x13)) (x133 (= x158 x113)) (x17 (= x70 x108)) (x135 (= x127 x153)) (x144 (= x76 x153)) (x149 (= x113 x70)) (x46 (= x158 x86)) (x156 (= x60 x86)) (x126 (= x42 x86)) (x50 (= x27 x93)) (x12 (= x153 x74)) (x36 (= x120 x153)) (x112 (= x108 x66)) (x4 (= x67 x153)) (x41 (= x1 x108)) (x11 (= x153 x121)) (x69 (= x146 x108)) (x59 (= x1 x93)) (x65 (= x42 x108)) (x142 (= x153 x98)) (x123 (= x153 x96)) (x44 (= x86 x27)) (x57 (= x146 x93)) (x34 (= x63 x93)) (x124 (= x108 x76)) (x30 (= x113 x120)) (x23 (= x61 x93)) (x9 (= x113 x74)) (x3 (= x37 x113)) (x45 (= x86 x37)) (x159 (= x25 x153)) (x125 (= x86 x127)) (x128 (= x67 x113)) (x19 (= x70 x153)) (x130 (= x66 x153)) (x5 (= x63 x113)) (x110 (= x104 x108)) (x26 (= x27 x153)) (x148 (= x150 x113)) (x39 (= x153 x37)) (x24 (= x60 x113)) (x89 (= x121 x113)) (x87 (= x13 x93)) (x117 (= x120 x93)) (x88 (= x86 x98)) (x145 (= x86 x121)) (x14 (= x127 x113)) (x91 (= x153 x104)) (x152 (= x49 x86)) (x122 (= x113 x146)) (x118 (= x100 x153)) (x151 (= x108 x150)) (x43 (= x153 x158)) (x64 (= x60 x108)) (x77 (= x86 x74)) (x92 (= x113 x25)) (x33 (= x113 x49)) (x97 (= x146 x86)) (x83 (= x74 x93)) (x132 (= x93 x121)) (x15 (= x153 x146)) (x90 (= x93 x49)) (x8 (= x100 x113)) (x129 (= x93 x76)) (x18 (= x86 x104)) (x2 (= x108 x27)) (x84 (= x113 x42)) (x22 (= x96 x108)) (x140 (= x61 x153)) (x78 (= x42 x93)) (x101 (= x120 x108)) (x58 (= x96 x86)) (x94 (= x108 x121)) (x115 (= x13 x153)) (x147 (= x120 x86)) (x143 (= x93 x25)) (x62 (= x153 x42)) (x72 (= x61 x113)) (x68 (= x93 x60)) (x38 (= x108 x74)) (x136 (= x127 x108)) (x80 (= x100 x86)) (x107 (= x93 x98)) (x6 (= x93 x100)) (x85 (= x98 x113)) (x154 (= x86 x25)) (x40 (= x113 x104)) (x7 (= x113 x66)) (x31 (= x86 x1)) (x73 (= x108 x25)) (x103 (= x27 x113)) (x47 (= x70 x93)) (x10 (= x93 x66)) (x155 (= x96 x93)) (x52 (= x153 x49)) (x139 (= x127 x93)) (x32 (= x158 x108)) (x82 (= x150 x86))) (and (and (and (and (and (and (and (or (or (or x58 (or x154 x145)) x152) x18) (or (or (or x147 (or x82 x145)) x125) x126)) (and (and (or (or x14 (or (or x148 x89) x30)) x84) (or (or x33 (or (or x89 x92) x105)) x40)) (and (and (or x65 (or x136 (or (or x94 x151) x101))) (or (or (or (or x94 x73) x22) x81) x110)) (and (or (or x52 (or x123 (or x159 x11))) x91) (or (or x135 (or (or x79 x11) x36)) x62))))) (and (or (or (or x117 (or x132 x119)) x139) x78) (or (or x90 (or (or x143 x132) x155)) x28))) (and (and (or (or x71 (or x34 (or x47 x143))) x87) (or (or (or (or x119 x47) x50) x68) x57)) (and (and (and (or (or x24 (or (or x149 x148) x103)) x122) (or (or (or (or x149 x92) x5) x133) x51)) (and (and (or (or (or x26 (or x79 x19)) x131) x15) (or (or (or x114 (or x159 x19)) x43) x115)) (and (or x95 (or x32 (or x138 (or x17 x73)))) (or x69 (or (or x2 (or x17 x151)) x64))))) (and (or x56 (or x46 (or (or x154 x53) x116))) (or x97 (or (or (or x53 x82) x44) x156)))))) (and (and (or (or (or x23 (or x34 x117)) x83) x10) (or (or x111 (or (or x50 x155) x23)) x129)) (and (and (and (and (or (or x38 (or (or x101 x138) x20)) x112) (or (or (or x20 (or x22 x2)) x55) x124)) (and (or x130 (or (or (or x36 x114) x140) x12)) (or (or (or (or x26 x123) x140) x4) x144))) (and (or x109 (or (or (or x103 x105) x72) x128)) (or (or x9 (or (or x30 x5) x72)) x7))) (and (or (or (or (or x147 x116) x99) x77) x21) (or (or (or x99 (or x58 x44)) x75) x157))))) (and (and (or (or (or x83 (or x68 x90)) x35) x59) (or x6 (or x35 (or (or x139 x71) x111)))) (and (and (and (or x54 (or x3 (or x9 (or x24 x33)))) (or (or (or x128 (or x14 x133)) x3) x8)) (and (and (or x41 (or x134 (or (or x81 x64) x38))) (or (or x134 (or x55 (or x32 x136))) x102)) (and (or x106 (or x39 (or x12 (or x52 x131)))) (or x118 (or (or x4 (or x135 x43)) x39))))) (and (or (or (or x77 (or x156 x152)) x45) x31) (or x80 (or x45 (or x75 (or x125 x46)))))))) (and (and (or x107 (or (or (or x87 x78) x129) x59)) (or x107 (or x6 (or (or x28 x57) x10)))) (and (and (or (or (or (or x18 x97) x21) x80) x88) (or x88 (or x31 (or (or x126 x56) x157)))) (and (and (or x85 (or (or (or x51 x84) x109) x54)) (or (or (or (or x122 x40) x7) x8) x85)) (and (and (or x142 (or (or (or x62 x115) x144) x106)) (or x142 (or (or x130 (or x15 x91)) x118))) (and (or (or (or (or x95 x65) x124) x41) x141) (or (or x102 (or x112 (or x110 x69))) x141))))))))))
(assert (let ((x94 (x29 x108 x108)) (x49 (x29 x93 x108)) (x145 (x29 x113 x113)) (x158 (x29 x153 x93)) (x132 (x29 x86 x113)) (x120 (x29 x86 x153)) (x159 (x29 x93 x113)) (x121 (x29 x108 x153)) (x13 (x29 x108 x93)) (x73 (x29 x113 x86)) (x89 (x29 x108 x113)) (x151 (x29 x113 x93)) (x27 (x29 x93 x93)) (x42 (x29 x153 x108)) (x104 (x29 x153 x113)) (x96 (x29 x86 x108)) (x79 (x29 x153 x86)) (x11 (x29 x153 x153)) (x25 (x29 x113 x108)) (x127 (x29 x93 x153)) (x19 (x29 x108 x86)) (x17 (x29 x86 x93)) (x70 (x29 x86 x86)) (x150 (x29 x113 x153)) (x63 (x29 x93 x86))) (and (and (and (and (and (not (= x73 x63)) (and (not (= x70 x73)) (and (not (= x19 x63)) (and (and (and (and (and (not (= x73 x79)) (not (= x19 x79))) (not (= x70 x79))) (not (= x79 x63))) (not (= x19 x73))) (not (= x19 x70)))))) (not (= x63 x70))) (and (and (and (and (not (= x150 x127)) (and (not (= x120 x150)) (and (and (not (= x121 x120)) (and (and (not (= x127 x11)) (and (not (= x11 x120)) (and (not (= x11 x121)) (not (= x150 x11))))) (not (= x150 x121)))) (not (= x121 x127))))) (not (= x127 x120))) (and (and (not (= x49 x25)) (and (and (and (not (= x96 x94)) (and (not (= x25 x94)) (and (and (and (not (= x42 x94)) (not (= x42 x25))) (not (= x96 x42))) (not (= x42 x49))))) (not (= x49 x94))) (not (= x25 x96)))) (not (= x96 x49)))) (and (not (= x159 x132)) (and (and (not (= x145 x132)) (and (not (= x89 x159)) (and (and (not (= x145 x89)) (and (not (= x104 x159)) (and (not (= x104 x132)) (and (not (= x145 x104)) (not (= x104 x89)))))) (not (= x89 x132))))) (not (= x145 x159)))))) (and (and (not (= x27 x151)) (and (and (not (= x27 x13)) (and (and (and (not (= x27 x158)) (and (not (= x17 x158)) (and (not (= x13 x158)) (not (= x151 x158))))) (not (= x151 x13))) (not (= x13 x17)))) (not (= x151 x17)))) (not (= x17 x27)))) (and (and (and (and (not (= x132 x17)) (and (and (and (and (and (and (and (not (= x120 x96)) (not (= x132 x120))) (not (= x70 x120))) (not (= x120 x17))) (not (= x96 x132))) (not (= x96 x70))) (not (= x17 x96))) (not (= x132 x70)))) (not (= x17 x70))) (and (and (and (and (and (not (= x25 x151)) (and (and (and (and (and (not (= x150 x145)) (not (= x25 x150))) (not (= x150 x73))) (not (= x150 x151))) (not (= x145 x25))) (not (= x73 x25)))) (not (= x73 x145))) (not (= x151 x145))) (not (= x73 x151))) (and (and (not (= x79 x158)) (and (not (= x104 x158)) (and (not (= x104 x79)) (and (and (and (and (not (= x158 x11)) (and (not (= x79 x11)) (and (not (= x104 x11)) (not (= x11 x42))))) (not (= x104 x42))) (not (= x42 x79))) (not (= x42 x158)))))) (and (not (= x13 x19)) (and (and (not (= x89 x19)) (and (not (= x13 x94)) (and (and (and (not (= x13 x121)) (and (and (not (= x121 x94)) (not (= x89 x121))) (not (= x19 x121)))) (not (= x89 x94))) (not (= x94 x19))))) (not (= x89 x13))))))) (and (and (not (= x27 x159)) (and (not (= x63 x159)) (and (not (= x49 x27)) (and (and (and (and (and (not (= x159 x127)) (not (= x49 x127))) (not (= x127 x63))) (not (= x127 x27))) (not (= x49 x159))) (not (= x49 x63)))))) (not (= x63 x27)))))))
(check-sat)
(exit)
